6										
1	0	0	1	2						
0	191	191	7	3	4	6	7	8	10	11
0	180	180	1	5						
0	180	180	1	5						
0	30	30	1	21						
0	120	120	4	9	12	13	14			
0	120	120	1	9						
0	120	120	1	9						
0	28	28	1	17						
0	179	179	1	17						
0	179	179	1	17						
0	30	30	1	15						
0	30	30	1	15						
0	30	30	1	15						
0	28	28	1	16						
0	22	22	1	17						
0	25	25	2	18	19					
0	40	40	1	22						
0	2	2	2	20	21					
0	4	4	1	22						
0	40	40	1	22						
0	8	8	1	23						
0	9	9	1	24						
0	1	1	5	25	26	27	31	35		
0	14	14	2	28	29					
0	30	30	2	28	29					
0	25	25	2	28	29					
0	45	45	1	30						
0	50	50	1	30						
0	38	38	1	55						
0	45	45	2	32	33					
0	40	40	1	34						
0	52	52	1	34						
0	52	52	1	55						
0	50	50	6	36	37	38	39	40	41	
0	42	42	2	42	55					
0	48	48	2	42	55					
0	50	50	2	42	55					
0	50	50	2	42	55					
0	52	52	2	42	55					
0	53	53	2	42	55					
0	1	1	1	63						
0	2	2	2	44	45					
0	2	2	2	46	58					
0	18	18	1	46						
0	5	5	1	59						
0	2	2	2	49	50					
0	2	2	2	49	50					
0	14	14	1	43						
0	5	5	1	59						
0	2	2	2	53	54					
0	2	2	2	53	54					
0	14	14	2	47	48					
0	5	5	1	59						
0	2	2	2	56	57					
0	2	2	2	51	58					
0	14	14	2	52	58					
0	5	5	1	59						
0	7	7	1	60						
0	14	14	2	61	62					
0	14	14	1	63						
0	14	14	1	63						
1	0	0	0							